100
32
13
6
4
16
2
26
14
8
13
24
6
13
13
18
3
16
1
1
2
1
1
19
1
5
19
3
1
1
1
1
2
3
18
1
3
1
3
2
6
1
2
2
1
3
2
1
3
1
18
2
3
1
3
4
2
5
17
4
8
1
2
1
17
6
1
1
2
2
3
4
17
5
1
1
17
3
1
2
1
2
1
1
2
2
2
3
3
18
1
2
3
4
1
1
1
1
3
19
1
2